v1 = 5;
v2 = 5;
vertexWeights = [-45, -45, -45, -45, -45, -45, -90, -90, -90, -90, -90, -45, -90, -90, -90, -90, -90, -45, -90, -90, -8.276472678623424, -90, -24.08318915758459, -45, -90, -24.020824298928627, -90, -90, -90, -45, -90, -90, -90, -90, -90];
edgeWeights = [| 0, 0, 0, 0, -15.0, 0, 0, 0, 0, 0, -15.0, 0, 0, 0, 0, 0, -15.0, 0, 0, 0, 0, 0, -15.0, 0, 0, 0, 0, 0, -15.0, 0, 0, 0, 0, 0, -15.0
| 0, 0, 0, 0, 0, 0, 0, 0, 0, 0, 0, 0, 0, 0, 0, 0, 0, 0, 0, 0, 0, 0, 0, 0, 0, 0, 0, 0, 0, 0, 0, 0, 0, 0, 0
| 0, 0, 0, -15.0, 0, 0, 0, 0, 0, -15.0, 0, 0, 0, 0, 0, -15.0, 0, 0, 0, 0, 0, -15.0, 0, 0, 0, 0, 0, -15.0, 0, 0, 0, 0, 0, -15.0, 0
| 0, 0, -15.0, 0, 0, 0, 0, 0, -15.0, 0, 0, 0, 0, 0, -15.0, 0, 0, 0, 0, 0, -15.0, 0, 0, 0, 0, 0, -15.0, 0, 0, 0, 0, 0, -15.0, 0, 0
| -15.0, 0, 0, 0, 0, 0, -15.0, 0, 0, 0, 0, 0, -15.0, 0, 0, 0, 0, 0, -15.0, 0, 0, 0, 0, 0, -15.0, 0, 0, 0, 0, 0, -15.0, 0, 0, 0, 0
| 0, 0, 0, 0, 0, 0, 0, 0, 0, 0, 0, -7.5, -7.5, -7.5, -7.5, -7.5, -7.5, 0, 0, 0, 0, 0, 0, 0, 0, 0, 0, 0, 0, 0, 0, 0, 0, 0, 0
| 0, -0.0, -0.0, -0.0, -15.0, 0, 0, 0, 0, 0, 0, -7.5, 0, -7.5, -0.0, -0.0, -7.5, -0.0, 0, 0, 0, 0, -15.0, -0.0, 0, 0, 0, 0, -15.0, -0.0, 0, 0, 0, 0, -15.0
| -0.0, 0, -0.0, -0.0, -0.0, 0, 0, 0, 0, 0, 0, -7.5, -0.0, 0, -0.0, -0.0, -0.0, -0.0, 0, 0, 0, 0, 0, -0.0, 0, 0, 0, 0, 0, -0.0, 0, 0, 0, 0, 0
| -0.0, -0.0, 0, -15.0, -0.0, 0, 0, 0, 0, 0, 0, -7.5, -0.0, -7.5, 0, -7.5, -0.0, -0.0, 0, 0, 0, -15.0, 0, -0.0, 0, 0, 0, -15.0, 0, -0.0, 0, 0, 0, -15.0, 0
| -0.0, -0.0, -15.0, 0, -0.0, 0, 0, 0, 0, 0, 0, -7.5, -0.0, -7.5, -7.5, 0, -0.0, -0.0, 0, 0, -15.0, 0, 0, -0.0, 0, 0, -15.0, 0, 0, -0.0, 0, 0, -15.0, 0, 0
| -15.0, -0.0, -0.0, -0.0, 0, 0, 0, 0, 0, 0, 0, -7.5, -7.5, -7.5, -0.0, -0.0, 0, -0.0, -15.0, 0, 0, 0, 0, -0.0, -15.0, 0, 0, 0, 0, -0.0, -15.0, 0, 0, 0, 0
| 0, 0, 0, 0, 0, -7.5, -7.5, -7.5, -7.5, -7.5, -7.5, 0, 0, 0, 0, 0, 0, -7.5, -7.5, -7.5, -7.5, -7.5, -7.5, 0, 0, 0, 0, 0, 0, 0, 0, 0, 0, 0, 0
| 0, -0.0, -0.0, -0.0, -15.0, -7.5, 0, -0.0, -7.5, -0.0, -7.5, 0, 0, 0, 0, 0, 0, -7.5, 0, -0.0, -7.5, -0.0, -7.5, -0.0, 0, 0, 0, 0, -15.0, -0.0, 0, 0, 0, 0, -15.0
| -0.0, 0, -0.0, -0.0, -0.0, -7.5, -7.5, 0, -7.5, -0.0, -0.0, 0, 0, 0, 0, 0, 0, -7.5, -7.5, 0, -7.5, -0.0, -0.0, -0.0, 0, 0, 0, 0, 0, -0.0, 0, 0, 0, 0, 0
| -0.0, -0.0, 0, -15.0, -0.0, -7.5, -7.5, -0.0, 0, -7.5, -0.0, 0, 0, 0, 0, 0, 0, -7.5, -7.5, -0.0, 0, -7.5, -0.0, -0.0, 0, 0, 0, -15.0, 0, -0.0, 0, 0, 0, -15.0, 0
| -0.0, -0.0, -15.0, 0, -0.0, -7.5, -7.5, -0.0, -7.5, 0, -0.0, 0, 0, 0, 0, 0, 0, -7.5, -7.5, -0.0, -7.5, 0, -0.0, -0.0, 0, 0, -15.0, 0, 0, -0.0, 0, 0, -15.0, 0, 0
| -15.0, -0.0, -0.0, -0.0, 0, -7.5, -7.5, -0.0, -7.5, -0.0, 0, 0, 0, 0, 0, 0, 0, -7.5, -7.5, -0.0, -7.5, -0.0, 0, -0.0, -15.0, 0, 0, 0, 0, -0.0, -15.0, 0, 0, 0, 0
| 0, 0, 0, 0, 0, 0, 0, 0, 0, 0, 0, -7.5, -7.5, -7.5, -7.5, -7.5, -7.5, 0, 0, 0, 0, 0, 0, 0, 0, 0, 0, 0, 0, -7.5, -7.5, -7.5, -7.5, -7.5, -7.5
| 0, -0.0, -0.0, -0.0, -15.0, -0.0, 0, 0, 0, 0, -15.0, -7.5, 0, -7.5, -0.0, -0.0, -7.5, 0, 0, 0, 0, 0, 0, -0.0, 0, 0, 0, 0, -15.0, -7.5, 0, -7.5, -0.0, -0.0, -7.5
| -0.0, 0, -0.0, -0.0, -0.0, -0.0, 0, 0, 0, 0, 0, -7.5, -0.0, 0, -0.0, -0.0, -7.5, 0, 0, 0, 0, 0, 0, -0.0, 0, 0, 0, 0, 0, -7.5, -0.0, 0, -0.0, -0.0, -7.5
| -0.0, -0.0, 0, -15.0, -0.0, -0.0, 0, 0, 0, -15.0, 0, -7.5, -0.0, -7.5, 0, -7.5, -7.5, 0, 0, 0, 0, 0, 0, -0.0, 0, 0, 0, -15.0, 0, -7.5, -0.0, -7.5, 0, -7.5, -7.5
| -0.0, -0.0, -15.0, 0, -0.0, -0.0, 0, 0, -15.0, 0, 0, -7.5, -0.0, -7.5, -7.5, 0, -7.5, 0, 0, 0, 0, 0, 0, -0.0, 0, 0, -15.0, 0, 0, -7.5, -0.0, -7.5, -7.5, 0, -7.5
| -15.0, -0.0, -0.0, -0.0, 0, -0.0, -15.0, 0, 0, 0, 0, -7.5, -7.5, -7.5, -0.0, -0.0, 0, 0, 0, 0, 0, 0, 0, -0.0, -15.0, 0, 0, 0, 0, -7.5, -7.5, -7.5, -0.0, -0.0, 0
| 0, 0, 0, 0, 0, 0, 0, 0, 0, 0, 0, 0, 0, 0, 0, 0, 0, 0, 0, 0, 0, 0, 0, 0, 0, 0, 0, 0, 0, 0, 0, 0, 0, 0, 0
| 0, -0.0, -0.0, -0.0, -15.0, -0.0, 0, 0, 0, 0, -15.0, -0.0, 0, 0, 0, 0, -15.0, -0.0, 0, 0, 0, 0, -15.0, 0, 0, 0, 0, 0, 0, -0.0, 0, 0, 0, 0, -15.0
| -0.0, 0, -0.0, -0.0, -0.0, -0.0, 0, 0, 0, 0, 0, -0.0, 0, 0, 0, 0, 0, -0.0, 0, 0, 0, 0, 0, 0, 0, 0, 0, 0, 0, -0.0, 0, 0, 0, 0, 0
| -0.0, -0.0, 0, -15.0, -0.0, -0.0, 0, 0, 0, -15.0, 0, -0.0, 0, 0, 0, -15.0, 0, -0.0, 0, 0, 0, -15.0, 0, 0, 0, 0, 0, 0, 0, -0.0, 0, 0, 0, -15.0, 0
| -0.0, -0.0, -15.0, 0, -0.0, -0.0, 0, 0, -15.0, 0, 0, -0.0, 0, 0, -15.0, 0, 0, -0.0, 0, 0, -15.0, 0, 0, 0, 0, 0, 0, 0, 0, -0.0, 0, 0, -15.0, 0, 0
| -15.0, -0.0, -0.0, -0.0, 0, -0.0, -15.0, 0, 0, 0, 0, -0.0, -15.0, 0, 0, 0, 0, -0.0, -15.0, 0, 0, 0, 0, 0, 0, 0, 0, 0, 0, -0.0, -15.0, 0, 0, 0, 0
| 0, 0, 0, 0, 0, 0, 0, 0, 0, 0, 0, 0, 0, 0, 0, 0, 0, -7.5, -7.5, -7.5, -7.5, -7.5, -7.5, 0, 0, 0, 0, 0, 0, 0, 0, 0, 0, 0, 0
| 0, -0.0, -0.0, -0.0, -15.0, -0.0, 0, 0, 0, 0, -15.0, -0.0, 0, 0, 0, 0, -15.0, -7.5, 0, -0.0, -7.5, -0.0, -7.5, -0.0, 0, 0, 0, 0, -15.0, 0, 0, 0, 0, 0, 0
| -0.0, 0, -0.0, -0.0, -0.0, -0.0, 0, 0, 0, 0, 0, -0.0, 0, 0, 0, 0, 0, -7.5, -0.0, 0, -7.5, -0.0, -0.0, -0.0, 0, 0, 0, 0, 0, 0, 0, 0, 0, 0, 0
| -0.0, -0.0, 0, -15.0, -0.0, -0.0, 0, 0, 0, -15.0, 0, -0.0, 0, 0, 0, -15.0, 0, -7.5, -0.0, -0.0, 0, -7.5, -0.0, -0.0, 0, 0, 0, -15.0, 0, 0, 0, 0, 0, 0, 0
| -0.0, -0.0, -15.0, 0, -0.0, -0.0, 0, 0, -15.0, 0, 0, -0.0, 0, 0, -15.0, 0, 0, -7.5, -0.0, -0.0, -7.5, 0, -0.0, -0.0, 0, 0, -15.0, 0, 0, 0, 0, 0, 0, 0, 0
| -15.0, -0.0, -0.0, -0.0, 0, -0.0, -15.0, 0, 0, 0, 0, -0.0, -15.0, 0, 0, 0, 0, -7.5, -7.5, -0.0, -7.5, -0.0, 0, -0.0, -15.0, 0, 0, 0, 0, 0, 0, 0, 0, 0, 0 |];
adjacent = [| 0, 1, 1, 1, 1, 1, 0, 1, 1, 1, 1, 1, 0, 1, 1, 1, 1, 1, 0, 1, 1, 1, 1, 1, 0, 1, 1, 1, 1, 1, 0, 1, 1, 1, 1
| 1, 0, 1, 1, 1, 1, 1, 0, 1, 1, 1, 1, 1, 0, 1, 1, 1, 1, 1, 0, 1, 1, 1, 1, 1, 0, 1, 1, 1, 1, 1, 0, 1, 1, 1
| 1, 1, 0, 1, 1, 1, 1, 1, 0, 1, 1, 1, 1, 1, 0, 1, 1, 1, 1, 1, 0, 1, 1, 1, 1, 1, 0, 1, 1, 1, 1, 1, 0, 1, 1
| 1, 1, 1, 0, 1, 1, 1, 1, 1, 0, 1, 1, 1, 1, 1, 0, 1, 1, 1, 1, 1, 0, 1, 1, 1, 1, 1, 0, 1, 1, 1, 1, 1, 0, 1
| 1, 1, 1, 1, 0, 1, 1, 1, 1, 1, 0, 1, 1, 1, 1, 1, 0, 1, 1, 1, 1, 1, 0, 1, 1, 1, 1, 1, 0, 1, 1, 1, 1, 1, 0
| 1, 1, 1, 1, 1, 0, 0, 0, 0, 0, 0, 1, 1, 1, 1, 1, 1, 1, 1, 1, 1, 1, 1, 1, 1, 1, 1, 1, 1, 1, 1, 1, 1, 1, 1
| 0, 1, 1, 1, 1, 0, 0, 0, 0, 0, 0, 1, 0, 1, 1, 1, 1, 1, 0, 1, 1, 1, 1, 1, 0, 1, 1, 1, 1, 1, 0, 1, 1, 1, 1
| 1, 0, 1, 1, 1, 0, 0, 0, 0, 0, 0, 1, 1, 0, 1, 1, 1, 1, 1, 0, 1, 1, 1, 1, 1, 0, 1, 1, 1, 1, 1, 0, 1, 1, 1
| 1, 1, 0, 1, 1, 0, 0, 0, 0, 0, 0, 1, 1, 1, 0, 1, 1, 1, 1, 1, 0, 1, 1, 1, 1, 1, 0, 1, 1, 1, 1, 1, 0, 1, 1
| 1, 1, 1, 0, 1, 0, 0, 0, 0, 0, 0, 1, 1, 1, 1, 0, 1, 1, 1, 1, 1, 0, 1, 1, 1, 1, 1, 0, 1, 1, 1, 1, 1, 0, 1
| 1, 1, 1, 1, 0, 0, 0, 0, 0, 0, 0, 1, 1, 1, 1, 1, 0, 1, 1, 1, 1, 1, 0, 1, 1, 1, 1, 1, 0, 1, 1, 1, 1, 1, 0
| 1, 1, 1, 1, 1, 1, 1, 1, 1, 1, 1, 0, 0, 0, 0, 0, 0, 1, 1, 1, 1, 1, 1, 1, 1, 1, 1, 1, 1, 1, 1, 1, 1, 1, 1
| 0, 1, 1, 1, 1, 1, 0, 1, 1, 1, 1, 0, 0, 0, 0, 0, 0, 1, 0, 1, 1, 1, 1, 1, 0, 1, 1, 1, 1, 1, 0, 1, 1, 1, 1
| 1, 0, 1, 1, 1, 1, 1, 0, 1, 1, 1, 0, 0, 0, 0, 0, 0, 1, 1, 0, 1, 1, 1, 1, 1, 0, 1, 1, 1, 1, 1, 0, 1, 1, 1
| 1, 1, 0, 1, 1, 1, 1, 1, 0, 1, 1, 0, 0, 0, 0, 0, 0, 1, 1, 1, 0, 1, 1, 1, 1, 1, 0, 1, 1, 1, 1, 1, 0, 1, 1
| 1, 1, 1, 0, 1, 1, 1, 1, 1, 0, 1, 0, 0, 0, 0, 0, 0, 1, 1, 1, 1, 0, 1, 1, 1, 1, 1, 0, 1, 1, 1, 1, 1, 0, 1
| 1, 1, 1, 1, 0, 1, 1, 1, 1, 1, 0, 0, 0, 0, 0, 0, 0, 1, 1, 1, 1, 1, 0, 1, 1, 1, 1, 1, 0, 1, 1, 1, 1, 1, 0
| 1, 1, 1, 1, 1, 1, 1, 1, 1, 1, 1, 1, 1, 1, 1, 1, 1, 0, 0, 0, 0, 0, 0, 1, 1, 1, 1, 1, 1, 1, 1, 1, 1, 1, 1
| 0, 1, 1, 1, 1, 1, 0, 1, 1, 1, 1, 1, 0, 1, 1, 1, 1, 0, 0, 0, 0, 0, 0, 1, 0, 1, 1, 1, 1, 1, 0, 1, 1, 1, 1
| 1, 0, 1, 1, 1, 1, 1, 0, 1, 1, 1, 1, 1, 0, 1, 1, 1, 0, 0, 0, 0, 0, 0, 1, 1, 0, 1, 1, 1, 1, 1, 0, 1, 1, 1
| 1, 1, 0, 1, 1, 1, 1, 1, 0, 1, 1, 1, 1, 1, 0, 1, 1, 0, 0, 0, 0, 0, 0, 1, 1, 1, 0, 1, 1, 1, 1, 1, 0, 1, 1
| 1, 1, 1, 0, 1, 1, 1, 1, 1, 0, 1, 1, 1, 1, 1, 0, 1, 0, 0, 0, 0, 0, 0, 1, 1, 1, 1, 0, 1, 1, 1, 1, 1, 0, 1
| 1, 1, 1, 1, 0, 1, 1, 1, 1, 1, 0, 1, 1, 1, 1, 1, 0, 0, 0, 0, 0, 0, 0, 1, 1, 1, 1, 1, 0, 1, 1, 1, 1, 1, 0
| 1, 1, 1, 1, 1, 1, 1, 1, 1, 1, 1, 1, 1, 1, 1, 1, 1, 1, 1, 1, 1, 1, 1, 0, 0, 0, 0, 0, 0, 1, 1, 1, 1, 1, 1
| 0, 1, 1, 1, 1, 1, 0, 1, 1, 1, 1, 1, 0, 1, 1, 1, 1, 1, 0, 1, 1, 1, 1, 0, 0, 0, 0, 0, 0, 1, 0, 1, 1, 1, 1
| 1, 0, 1, 1, 1, 1, 1, 0, 1, 1, 1, 1, 1, 0, 1, 1, 1, 1, 1, 0, 1, 1, 1, 0, 0, 0, 0, 0, 0, 1, 1, 0, 1, 1, 1
| 1, 1, 0, 1, 1, 1, 1, 1, 0, 1, 1, 1, 1, 1, 0, 1, 1, 1, 1, 1, 0, 1, 1, 0, 0, 0, 0, 0, 0, 1, 1, 1, 0, 1, 1
| 1, 1, 1, 0, 1, 1, 1, 1, 1, 0, 1, 1, 1, 1, 1, 0, 1, 1, 1, 1, 1, 0, 1, 0, 0, 0, 0, 0, 0, 1, 1, 1, 1, 0, 1
| 1, 1, 1, 1, 0, 1, 1, 1, 1, 1, 0, 1, 1, 1, 1, 1, 0, 1, 1, 1, 1, 1, 0, 0, 0, 0, 0, 0, 0, 1, 1, 1, 1, 1, 0
| 1, 1, 1, 1, 1, 1, 1, 1, 1, 1, 1, 1, 1, 1, 1, 1, 1, 1, 1, 1, 1, 1, 1, 1, 1, 1, 1, 1, 1, 0, 0, 0, 0, 0, 0
| 0, 1, 1, 1, 1, 1, 0, 1, 1, 1, 1, 1, 0, 1, 1, 1, 1, 1, 0, 1, 1, 1, 1, 1, 0, 1, 1, 1, 1, 0, 0, 0, 0, 0, 0
| 1, 0, 1, 1, 1, 1, 1, 0, 1, 1, 1, 1, 1, 0, 1, 1, 1, 1, 1, 0, 1, 1, 1, 1, 1, 0, 1, 1, 1, 0, 0, 0, 0, 0, 0
| 1, 1, 0, 1, 1, 1, 1, 1, 0, 1, 1, 1, 1, 1, 0, 1, 1, 1, 1, 1, 0, 1, 1, 1, 1, 1, 0, 1, 1, 0, 0, 0, 0, 0, 0
| 1, 1, 1, 0, 1, 1, 1, 1, 1, 0, 1, 1, 1, 1, 1, 0, 1, 1, 1, 1, 1, 0, 1, 1, 1, 1, 1, 0, 1, 0, 0, 0, 0, 0, 0
| 1, 1, 1, 1, 0, 1, 1, 1, 1, 1, 0, 1, 1, 1, 1, 1, 0, 1, 1, 1, 1, 1, 0, 1, 1, 1, 1, 1, 0, 0, 0, 0, 0, 0, 0 |];
